nNurses = 166;
nHours = 32;
minHours = 6;
maxHours = 17;
maxConsec = 10;
maxPresence = 21;
demand = [33, 34, 38, 36, 34, 38, 40, 38, 34, 35, 32, 35, 39, 37, 33, 31, 29, 26, 22, 27, 26, 21, 19, 20, 21, 20, 19, 22, 19, 20, 25, 25];
